1 97 28 4 76 55 42 53 79 54 11 72 19 69 14 93 6 30 82 64 44 96 75 65 15 33 61 8 38 73 40 87 83 68 58 95 12 0 27 56 31 46 21 74 34 10 89 91 39 7 47 70 13 84 5 37 88 92 35 77 43 9 32 24 29 63 49 26 16 57 51 62 81 86 45 94 85 17 20 18 48 59 50 2 25 99 41 52 60 36 90 22 66 71 3 80 78 23 67 98